\ LP format - for model browsing. Use MPS format to capture full model detail.
Maximize
  x[1] + x[2] + x[3] + x[5] + x[8] + x[4] + x[11] + x[14] + x[6] + x[7]
   + x[9] + x[10] + x[12] + x[13] + x[15] + x[16] + y[1] + y[2] + y[3]
   + y[5] + y[8] + y[4] + y[11] + y[14] + y[6] + y[7] + y[9] + y[10]
   + y[12] + y[13] + y[15] + y[16] + 3 Constant
Subject To
 R0: x[2] + x[3] + x[14] + y[2] + y[3] + y[14] >= 0
 R1: x[1] - x[5] + x[6] + x[7] + y[1] + y[6] + y[7] >= 0
 R2: x[2] - x[8] + x[9] + x[10] + y[2] + y[9] + y[10] >= 0
 R3: x[3] - x[11] + x[12] + x[13] + y[3] + y[12] + y[13] >= 0
 R4: x[4] - 2 x[14] + x[15] + x[16] + y[4] + y[15] + y[16] >= 0
 R5: y[1] + y[2] + y[3] + y[5] + y[8] + y[4] + y[11] + y[14] + y[6] + y[7]
   + y[9] + y[10] + y[12] + y[13] + y[15] + y[16] <= 4
Bounds
 x[1] = 0
 x[2] = 0
 x[3] = 0
 x[6] = 0
 x[7] = 0
 x[9] = 0
 x[10] = 0
 x[12] = 0
 x[13] = 0
 x[15] = 0
 x[16] = 0
 y[1] = 0
 y[2] = 0
 y[3] = 0
 y[5] = 0
 y[8] = 0
 y[4] = 0
 y[11] = 0
 y[14] = 0
 Constant = 1
Binaries
 x[1] x[2] x[3] x[5] x[8] x[4] x[11] x[14] x[6] x[7] x[9] x[10] x[12] x[13]
 x[15] x[16] y[1] y[2] y[3] y[5] y[8] y[4] y[11] y[14] y[6] y[7] y[9] y[10]
 y[12] y[13] y[15] y[16]
End
